(declare-const |i':43| Int)
(declare-const |j':44| Int)
(declare-const |K:49| Int)
(assert (and (or (not (and (<= (- |K:49|) 0) (<= |K:49| 0)))
                   (= (+ |i':43| (* -2 |K:49|) -1) 0))
               (or (not (<= (+ (- |K:49|) 1) 0))
                     (= (+ |i':43| (* -2 |K:49|) -1) 0))
               (or (not (and (<= (- |K:49|) 0) (<= |K:49| 0)))
                     (= (+ |j':44| |K:49| -10) 0))
               (or (not (<= (+ (- |K:49|) 1) 0)) (= (+ |j':44| |K:49| -10) 0))
               (or (and (= |K:49| 0) (= (+ (- |j':44|) 10) 0)
                          (= (+ (- |i':43|) 1) 0))
                     (and (<= (+ (- |K:49|) 1) 0)
                            (= (+ (* 2 |j':44|) |i':43| -21) 0)
                            (<= (+ |i':43| -9) 0) (<= (+ (- |i':43|) 3) 0)))
               (<= (- |K:49|) 0) (< (- |j':44|) 0) (< (- |i':43|) 0)
               (= (+ (* 2 |j':44|) |i':43| -21) 0)
               (< (+ |j':44| (- |i':43|)) 0) (not (= (+ |j':44| -6) 0))))
(check-sat)
